50 370
1 2
1 8
1 9
1 12
1 14
1 16
1 17
1 19
1 21
1 24
1 27
1 31
1 33
1 35
1 38
1 40
1 41
1 42
1 43
1 45
1 49
2 3
2 5
2 8
2 14
2 19
2 26
2 37
2 38
2 44
2 48
2 49
3 10
3 16
3 22
3 24
3 26
3 29
3 33
3 38
3 42
3 44
4 5
4 12
4 13
4 27
4 28
4 29
4 31
4 32
4 34
4 36
4 37
4 40
4 46
5 7
5 15
5 20
5 22
5 24
5 28
5 35
5 38
5 40
5 42
5 43
5 44
5 46
5 47
6 8
6 16
6 18
6 22
6 30
6 38
6 41
6 42
6 45
6 46
6 47
6 48
6 50
7 12
7 15
7 19
7 20
7 21
7 23
7 28
7 30
7 31
7 32
7 33
7 37
7 38
7 47
7 48
7 49
8 12
8 13
8 14
8 15
8 16
8 17
8 18
8 20
8 21
8 22
8 26
8 29
8 30
8 40
8 42
8 46
8 48
9 13
9 16
9 17
9 20
9 22
9 28
9 29
9 34
9 36
9 37
9 40
9 43
9 46
10 14
10 19
10 29
10 41
10 42
10 43
10 46
10 49
11 12
11 16
11 23
11 27
11 31
11 34
11 39
11 46
11 48
12 13
12 20
12 21
12 22
12 27
12 31
12 33
12 38
12 39
12 41
12 44
13 22
13 29
13 31
13 34
13 39
13 41
13 43
13 44
13 46
14 18
14 21
14 25
14 28
14 29
14 30
14 32
14 33
14 35
14 40
14 42
14 47
14 50
15 25
15 27
15 28
15 29
15 31
15 36
15 37
15 42
15 47
15 48
16 17
16 19
16 20
16 21
16 28
16 30
16 33
16 37
16 39
16 42
16 43
16 44
16 45
17 18
17 23
17 24
17 25
17 35
17 37
17 40
17 43
17 44
17 45
17 48
17 50
18 21
18 23
18 25
18 26
18 27
18 28
18 30
18 31
18 36
18 39
18 40
18 45
18 49
18 50
19 23
19 29
19 32
19 41
19 43
19 44
19 48
20 22
20 25
20 26
20 29
20 34
20 37
20 41
20 43
20 46
21 22
21 23
21 27
21 31
21 37
21 38
21 40
21 45
21 48
21 49
22 34
22 35
22 41
23 24
23 31
23 33
23 34
23 35
23 39
23 43
23 46
23 47
23 48
24 25
24 35
24 37
24 38
24 39
24 42
24 44
24 47
25 28
25 32
25 34
25 37
25 39
25 43
25 44
26 27
26 32
26 37
26 38
26 46
27 28
27 29
27 38
27 39
27 46
27 50
28 30
28 36
28 38
28 42
28 49
29 30
29 34
29 35
29 39
29 43
29 46
30 37
30 38
30 39
30 40
30 41
30 48
30 49
30 50
31 32
31 34
31 35
31 37
31 38
31 40
31 47
32 34
32 39
32 40
32 42
32 46
32 50
33 37
33 43
33 44
33 47
34 37
34 40
34 41
34 42
34 43
34 44
34 46
35 36
35 42
35 45
35 47
36 37
36 39
36 41
36 42
36 47
37 38
37 40
37 44
38 39
38 49
39 48
39 49
40 44
40 46
40 47
40 50
41 44
42 43
42 47
42 48
42 50
43 44
43 47
43 49
43 50
44 45
44 49
44 50
46 48
47 49
48 49
